data;
param n:=100;
param w:=1 -180 2 -62 3 -465 4 -92 5 349 6 -116 7 -159 8 -186 9 -72 10 415 11 153 12 201 13 -87 14 189 15 -196 16 -512 17 -228 18 -148 19 162 20 -153 21 461 22 58 23 -406 24 -432 25 -237 26 227 27 362 28 33 29 464 30 -502 31 -136 32 93 33 287 34 206 35 151 36 -424 37 -57 38 -10 39 -90 40 -412 41 380 42 175 43 -448 44 409 45 36 46 68 47 96 48 39 49 279 50 33 51 -329 52 117 53 -197 54 -259 55 453 56 460 57 -429 58 61 59 -17 60 244 61 -338 62 -120 63 -142 64 149 65 66 66 475 67 102 68 313 69 150 70 -340 71 121 72 279 73 -41 74 -1 75 420 76 430 77 292 78 -104 79 -202 80 351 81 -230 82 -29 83 105 84 156 85 -412 86 83 87 -493 88 170 89 108 90 -412 91 183 92 -417 93 160 94 -458 95 433 96 297 97 -118 98 -426 99 -404 100 224;
